c description: Graph 4-Colorability of graph: 
c generator: CNFgen (0.9.0)
c copyright: (C) 2012-2020 Massimo Lauria <massimo.lauria@uniroma1.it>
c url: https://massimolauria.net/cnfgen
c
p cnf 200 950
1 2 3 4 0
-1 -2 0
-1 -3 0
-1 -4 0
-2 -3 0
-2 -4 0
-3 -4 0
5 6 7 8 0
-5 -6 0
-5 -7 0
-5 -8 0
-6 -7 0
-6 -8 0
-7 -8 0
9 10 11 12 0
-9 -10 0
-9 -11 0
-9 -12 0
-10 -11 0
-10 -12 0
-11 -12 0
13 14 15 16 0
-13 -14 0
-13 -15 0
-13 -16 0
-14 -15 0
-14 -16 0
-15 -16 0
17 18 19 20 0
-17 -18 0
-17 -19 0
-17 -20 0
-18 -19 0
-18 -20 0
-19 -20 0
21 22 23 24 0
-21 -22 0
-21 -23 0
-21 -24 0
-22 -23 0
-22 -24 0
-23 -24 0
25 26 27 28 0
-25 -26 0
-25 -27 0
-25 -28 0
-26 -27 0
-26 -28 0
-27 -28 0
29 30 31 32 0
-29 -30 0
-29 -31 0
-29 -32 0
-30 -31 0
-30 -32 0
-31 -32 0
33 34 35 36 0
-33 -34 0
-33 -35 0
-33 -36 0
-34 -35 0
-34 -36 0
-35 -36 0
37 38 39 40 0
-37 -38 0
-37 -39 0
-37 -40 0
-38 -39 0
-38 -40 0
-39 -40 0
41 42 43 44 0
-41 -42 0
-41 -43 0
-41 -44 0
-42 -43 0
-42 -44 0
-43 -44 0
45 46 47 48 0
-45 -46 0
-45 -47 0
-45 -48 0
-46 -47 0
-46 -48 0
-47 -48 0
49 50 51 52 0
-49 -50 0
-49 -51 0
-49 -52 0
-50 -51 0
-50 -52 0
-51 -52 0
53 54 55 56 0
-53 -54 0
-53 -55 0
-53 -56 0
-54 -55 0
-54 -56 0
-55 -56 0
57 58 59 60 0
-57 -58 0
-57 -59 0
-57 -60 0
-58 -59 0
-58 -60 0
-59 -60 0
61 62 63 64 0
-61 -62 0
-61 -63 0
-61 -64 0
-62 -63 0
-62 -64 0
-63 -64 0
65 66 67 68 0
-65 -66 0
-65 -67 0
-65 -68 0
-66 -67 0
-66 -68 0
-67 -68 0
69 70 71 72 0
-69 -70 0
-69 -71 0
-69 -72 0
-70 -71 0
-70 -72 0
-71 -72 0
73 74 75 76 0
-73 -74 0
-73 -75 0
-73 -76 0
-74 -75 0
-74 -76 0
-75 -76 0
77 78 79 80 0
-77 -78 0
-77 -79 0
-77 -80 0
-78 -79 0
-78 -80 0
-79 -80 0
81 82 83 84 0
-81 -82 0
-81 -83 0
-81 -84 0
-82 -83 0
-82 -84 0
-83 -84 0
85 86 87 88 0
-85 -86 0
-85 -87 0
-85 -88 0
-86 -87 0
-86 -88 0
-87 -88 0
89 90 91 92 0
-89 -90 0
-89 -91 0
-89 -92 0
-90 -91 0
-90 -92 0
-91 -92 0
93 94 95 96 0
-93 -94 0
-93 -95 0
-93 -96 0
-94 -95 0
-94 -96 0
-95 -96 0
97 98 99 100 0
-97 -98 0
-97 -99 0
-97 -100 0
-98 -99 0
-98 -100 0
-99 -100 0
101 102 103 104 0
-101 -102 0
-101 -103 0
-101 -104 0
-102 -103 0
-102 -104 0
-103 -104 0
105 106 107 108 0
-105 -106 0
-105 -107 0
-105 -108 0
-106 -107 0
-106 -108 0
-107 -108 0
109 110 111 112 0
-109 -110 0
-109 -111 0
-109 -112 0
-110 -111 0
-110 -112 0
-111 -112 0
113 114 115 116 0
-113 -114 0
-113 -115 0
-113 -116 0
-114 -115 0
-114 -116 0
-115 -116 0
117 118 119 120 0
-117 -118 0
-117 -119 0
-117 -120 0
-118 -119 0
-118 -120 0
-119 -120 0
121 122 123 124 0
-121 -122 0
-121 -123 0
-121 -124 0
-122 -123 0
-122 -124 0
-123 -124 0
125 126 127 128 0
-125 -126 0
-125 -127 0
-125 -128 0
-126 -127 0
-126 -128 0
-127 -128 0
129 130 131 132 0
-129 -130 0
-129 -131 0
-129 -132 0
-130 -131 0
-130 -132 0
-131 -132 0
133 134 135 136 0
-133 -134 0
-133 -135 0
-133 -136 0
-134 -135 0
-134 -136 0
-135 -136 0
137 138 139 140 0
-137 -138 0
-137 -139 0
-137 -140 0
-138 -139 0
-138 -140 0
-139 -140 0
141 142 143 144 0
-141 -142 0
-141 -143 0
-141 -144 0
-142 -143 0
-142 -144 0
-143 -144 0
145 146 147 148 0
-145 -146 0
-145 -147 0
-145 -148 0
-146 -147 0
-146 -148 0
-147 -148 0
149 150 151 152 0
-149 -150 0
-149 -151 0
-149 -152 0
-150 -151 0
-150 -152 0
-151 -152 0
153 154 155 156 0
-153 -154 0
-153 -155 0
-153 -156 0
-154 -155 0
-154 -156 0
-155 -156 0
157 158 159 160 0
-157 -158 0
-157 -159 0
-157 -160 0
-158 -159 0
-158 -160 0
-159 -160 0
161 162 163 164 0
-161 -162 0
-161 -163 0
-161 -164 0
-162 -163 0
-162 -164 0
-163 -164 0
165 166 167 168 0
-165 -166 0
-165 -167 0
-165 -168 0
-166 -167 0
-166 -168 0
-167 -168 0
169 170 171 172 0
-169 -170 0
-169 -171 0
-169 -172 0
-170 -171 0
-170 -172 0
-171 -172 0
173 174 175 176 0
-173 -174 0
-173 -175 0
-173 -176 0
-174 -175 0
-174 -176 0
-175 -176 0
177 178 179 180 0
-177 -178 0
-177 -179 0
-177 -180 0
-178 -179 0
-178 -180 0
-179 -180 0
181 182 183 184 0
-181 -182 0
-181 -183 0
-181 -184 0
-182 -183 0
-182 -184 0
-183 -184 0
185 186 187 188 0
-185 -186 0
-185 -187 0
-185 -188 0
-186 -187 0
-186 -188 0
-187 -188 0
189 190 191 192 0
-189 -190 0
-189 -191 0
-189 -192 0
-190 -191 0
-190 -192 0
-191 -192 0
193 194 195 196 0
-193 -194 0
-193 -195 0
-193 -196 0
-194 -195 0
-194 -196 0
-195 -196 0
197 198 199 200 0
-197 -198 0
-197 -199 0
-197 -200 0
-198 -199 0
-198 -200 0
-199 -200 0
-1 -17 0
-2 -18 0
-3 -19 0
-4 -20 0
-1 -25 0
-2 -26 0
-3 -27 0
-4 -28 0
-1 -53 0
-2 -54 0
-3 -55 0
-4 -56 0
-1 -81 0
-2 -82 0
-3 -83 0
-4 -84 0
-1 -133 0
-2 -134 0
-3 -135 0
-4 -136 0
-1 -145 0
-2 -146 0
-3 -147 0
-4 -148 0
-1 -189 0
-2 -190 0
-3 -191 0
-4 -192 0
-5 -49 0
-6 -50 0
-7 -51 0
-8 -52 0
-5 -105 0
-6 -106 0
-7 -107 0
-8 -108 0
-5 -129 0
-6 -130 0
-7 -131 0
-8 -132 0
-5 -133 0
-6 -134 0
-7 -135 0
-8 -136 0
-5 -173 0
-6 -174 0
-7 -175 0
-8 -176 0
-5 -181 0
-6 -182 0
-7 -183 0
-8 -184 0
-5 -189 0
-6 -190 0
-7 -191 0
-8 -192 0
-9 -17 0
-10 -18 0
-11 -19 0
-12 -20 0
-9 -77 0
-10 -78 0
-11 -79 0
-12 -80 0
-9 -105 0
-10 -106 0
-11 -107 0
-12 -108 0
-9 -113 0
-10 -114 0
-11 -115 0
-12 -116 0
-9 -117 0
-10 -118 0
-11 -119 0
-12 -120 0
-9 -121 0
-10 -122 0
-11 -123 0
-12 -124 0
-9 -137 0
-10 -138 0
-11 -139 0
-12 -140 0
-9 -149 0
-10 -150 0
-11 -151 0
-12 -152 0
-13 -33 0
-14 -34 0
-15 -35 0
-16 -36 0
-13 -69 0
-14 -70 0
-15 -71 0
-16 -72 0
-13 -93 0
-14 -94 0
-15 -95 0
-16 -96 0
-13 -137 0
-14 -138 0
-15 -139 0
-16 -140 0
-13 -177 0
-14 -178 0
-15 -179 0
-16 -180 0
-13 -185 0
-14 -186 0
-15 -187 0
-16 -188 0
-17 -53 0
-18 -54 0
-19 -55 0
-20 -56 0
-17 -109 0
-18 -110 0
-19 -111 0
-20 -112 0
-17 -121 0
-18 -122 0
-19 -123 0
-20 -124 0
-17 -161 0
-18 -162 0
-19 -163 0
-20 -164 0
-21 -73 0
-22 -74 0
-23 -75 0
-24 -76 0
-21 -93 0
-22 -94 0
-23 -95 0
-24 -96 0
-21 -125 0
-22 -126 0
-23 -127 0
-24 -128 0
-21 -137 0
-22 -138 0
-23 -139 0
-24 -140 0
-21 -153 0
-22 -154 0
-23 -155 0
-24 -156 0
-21 -185 0
-22 -186 0
-23 -187 0
-24 -188 0
-25 -49 0
-26 -50 0
-27 -51 0
-28 -52 0
-25 -113 0
-26 -114 0
-27 -115 0
-28 -116 0
-25 -137 0
-26 -138 0
-27 -139 0
-28 -140 0
-25 -185 0
-26 -186 0
-27 -187 0
-28 -188 0
-29 -49 0
-30 -50 0
-31 -51 0
-32 -52 0
-29 -85 0
-30 -86 0
-31 -87 0
-32 -88 0
-29 -89 0
-30 -90 0
-31 -91 0
-32 -92 0
-29 -181 0
-30 -182 0
-31 -183 0
-32 -184 0
-29 -189 0
-30 -190 0
-31 -191 0
-32 -192 0
-29 -197 0
-30 -198 0
-31 -199 0
-32 -200 0
-33 -37 0
-34 -38 0
-35 -39 0
-36 -40 0
-33 -49 0
-34 -50 0
-35 -51 0
-36 -52 0
-33 -57 0
-34 -58 0
-35 -59 0
-36 -60 0
-33 -121 0
-34 -122 0
-35 -123 0
-36 -124 0
-33 -125 0
-34 -126 0
-35 -127 0
-36 -128 0
-33 -189 0
-34 -190 0
-35 -191 0
-36 -192 0
-37 -41 0
-38 -42 0
-39 -43 0
-40 -44 0
-37 -89 0
-38 -90 0
-39 -91 0
-40 -92 0
-37 -97 0
-38 -98 0
-39 -99 0
-40 -100 0
-37 -121 0
-38 -122 0
-39 -123 0
-40 -124 0
-37 -125 0
-38 -126 0
-39 -127 0
-40 -128 0
-37 -149 0
-38 -150 0
-39 -151 0
-40 -152 0
-37 -161 0
-38 -162 0
-39 -163 0
-40 -164 0
-41 -73 0
-42 -74 0
-43 -75 0
-44 -76 0
-41 -137 0
-42 -138 0
-43 -139 0
-44 -140 0
-41 -149 0
-42 -150 0
-43 -151 0
-44 -152 0
-41 -181 0
-42 -182 0
-43 -183 0
-44 -184 0
-41 -185 0
-42 -186 0
-43 -187 0
-44 -188 0
-45 -105 0
-46 -106 0
-47 -107 0
-48 -108 0
-45 -117 0
-46 -118 0
-47 -119 0
-48 -120 0
-45 -121 0
-46 -122 0
-47 -123 0
-48 -124 0
-45 -161 0
-46 -162 0
-47 -163 0
-48 -164 0
-49 -53 0
-50 -54 0
-51 -55 0
-52 -56 0
-49 -77 0
-50 -78 0
-51 -79 0
-52 -80 0
-49 -89 0
-50 -90 0
-51 -91 0
-52 -92 0
-53 -113 0
-54 -114 0
-55 -115 0
-56 -116 0
-53 -169 0
-54 -170 0
-55 -171 0
-56 -172 0
-57 -65 0
-58 -66 0
-59 -67 0
-60 -68 0
-57 -69 0
-58 -70 0
-59 -71 0
-60 -72 0
-57 -133 0
-58 -134 0
-59 -135 0
-60 -136 0
-57 -193 0
-58 -194 0
-59 -195 0
-60 -196 0
-61 -113 0
-62 -114 0
-63 -115 0
-64 -116 0
-61 -169 0
-62 -170 0
-63 -171 0
-64 -172 0
-61 -185 0
-62 -186 0
-63 -187 0
-64 -188 0
-61 -197 0
-62 -198 0
-63 -199 0
-64 -200 0
-65 -105 0
-66 -106 0
-67 -107 0
-68 -108 0
-65 -109 0
-66 -110 0
-67 -111 0
-68 -112 0
-65 -173 0
-66 -174 0
-67 -175 0
-68 -176 0
-69 -85 0
-70 -86 0
-71 -87 0
-72 -88 0
-69 -189 0
-70 -190 0
-71 -191 0
-72 -192 0
-73 -93 0
-74 -94 0
-75 -95 0
-76 -96 0
-73 -97 0
-74 -98 0
-75 -99 0
-76 -100 0
-73 -105 0
-74 -106 0
-75 -107 0
-76 -108 0
-73 -169 0
-74 -170 0
-75 -171 0
-76 -172 0
-73 -177 0
-74 -178 0
-75 -179 0
-76 -180 0
-81 -185 0
-82 -186 0
-83 -187 0
-84 -188 0
-85 -109 0
-86 -110 0
-87 -111 0
-88 -112 0
-85 -113 0
-86 -114 0
-87 -115 0
-88 -116 0
-85 -133 0
-86 -134 0
-87 -135 0
-88 -136 0
-85 -149 0
-86 -150 0
-87 -151 0
-88 -152 0
-85 -189 0
-86 -190 0
-87 -191 0
-88 -192 0
-85 -193 0
-86 -194 0
-87 -195 0
-88 -196 0
-85 -197 0
-86 -198 0
-87 -199 0
-88 -200 0
-89 -93 0
-90 -94 0
-91 -95 0
-92 -96 0
-89 -109 0
-90 -110 0
-91 -111 0
-92 -112 0
-89 -117 0
-90 -118 0
-91 -119 0
-92 -120 0
-93 -173 0
-94 -174 0
-95 -175 0
-96 -176 0
-97 -117 0
-98 -118 0
-99 -119 0
-100 -120 0
-97 -121 0
-98 -122 0
-99 -123 0
-100 -124 0
-97 -141 0
-98 -142 0
-99 -143 0
-100 -144 0
-97 -153 0
-98 -154 0
-99 -155 0
-100 -156 0
-97 -185 0
-98 -186 0
-99 -187 0
-100 -188 0
-101 -169 0
-102 -170 0
-103 -171 0
-104 -172 0
-105 -113 0
-106 -114 0
-107 -115 0
-108 -116 0
-105 -129 0
-106 -130 0
-107 -131 0
-108 -132 0
-105 -145 0
-106 -146 0
-107 -147 0
-108 -148 0
-105 -149 0
-106 -150 0
-107 -151 0
-108 -152 0
-105 -197 0
-106 -198 0
-107 -199 0
-108 -200 0
-109 -145 0
-110 -146 0
-111 -147 0
-112 -148 0
-113 -141 0
-114 -142 0
-115 -143 0
-116 -144 0
-113 -153 0
-114 -154 0
-115 -155 0
-116 -156 0
-113 -169 0
-114 -170 0
-115 -171 0
-116 -172 0
-117 -149 0
-118 -150 0
-119 -151 0
-120 -152 0
-117 -189 0
-118 -190 0
-119 -191 0
-120 -192 0
-117 -193 0
-118 -194 0
-119 -195 0
-120 -196 0
-125 -129 0
-126 -130 0
-127 -131 0
-128 -132 0
-125 -161 0
-126 -162 0
-127 -163 0
-128 -164 0
-125 -165 0
-126 -166 0
-127 -167 0
-128 -168 0
-125 -177 0
-126 -178 0
-127 -179 0
-128 -180 0
-129 -153 0
-130 -154 0
-131 -155 0
-132 -156 0
-129 -173 0
-130 -174 0
-131 -175 0
-132 -176 0
-133 -177 0
-134 -178 0
-135 -179 0
-136 -180 0
-133 -181 0
-134 -182 0
-135 -183 0
-136 -184 0
-137 -153 0
-138 -154 0
-139 -155 0
-140 -156 0
-141 -169 0
-142 -170 0
-143 -171 0
-144 -172 0
-141 -173 0
-142 -174 0
-143 -175 0
-144 -176 0
-141 -185 0
-142 -186 0
-143 -187 0
-144 -188 0
-145 -149 0
-146 -150 0
-147 -151 0
-148 -152 0
-145 -189 0
-146 -190 0
-147 -191 0
-148 -192 0
-149 -169 0
-150 -170 0
-151 -171 0
-152 -172 0
-149 -177 0
-150 -178 0
-151 -179 0
-152 -180 0
-153 -197 0
-154 -198 0
-155 -199 0
-156 -200 0
-157 -169 0
-158 -170 0
-159 -171 0
-160 -172 0
-161 -181 0
-162 -182 0
-163 -183 0
-164 -184 0
-165 -173 0
-166 -174 0
-167 -175 0
-168 -176 0
-169 -193 0
-170 -194 0
-171 -195 0
-172 -196 0
-173 -189 0
-174 -190 0
-175 -191 0
-176 -192 0
-177 -181 0
-178 -182 0
-179 -183 0
-180 -184 0
-185 -193 0
-186 -194 0
-187 -195 0
-188 -196 0
-185 -197 0
-186 -198 0
-187 -199 0
-188 -200 0
-189 -197 0
-190 -198 0
-191 -199 0
-192 -200 0
-193 -197 0
-194 -198 0
-195 -199 0
-196 -200 0